s td 42 8 49
b 1 1 2 8
b 2 6 7 14
b 3 36 43 44
b 4 42 48 49
b 5 2 3 8 9
b 6 5 6 13 14
b 7 3 4 10 18 26 32 40 48
b 8 4 10 18 26 32 34 40 48
b 9 4 10 18 26 28 34 40 48
b 10 4 10 18 20 26 28 34
b 11 4 10 12 18 20 26 28
b 12 4 12 14 20 28
b 13 4 12 13 14 20
b 14 4 5 12 13 14
b 15 14 20 21 28
b 16 4 10 11 12 18
b 17 12 18 19 20 26
b 18 20 26 27 28 34
b 19 28 34 40 41 48
b 20 28 34 35 41 48
b 21 26 32 33 34 40
b 22 3 10 18 24 26 32 40 48
b 23 3 10 16 18 24 32 40 48
b 24 3 10 16 22 24 32 40 48
b 25 3 8 10 16 22
b 26 3 8 9 10 16
b 27 8 15 16 22
b 28 16 22 24 30 32 40 48
b 29 16 22 23 24 30
b 30 22 24 30 32 38 40 48
b 31 22 30 32 38 40 45 48
b 32 22 30 37 38 45
b 33 22 29 30 37 45
b 34 29 37 44 45
b 35 32 38 39 40 45 48
b 36 39 40 45 47 48
b 37 39 45 46 47
b 38 24 30 31 32 38
b 39 10 16 17 18 24
b 40 18 24 25 26 32
b 41 29 36 37 44
b 42 35 41 42 48
1 5
2 6
3 41
4 42
5 26
6 14
7 8
7 22
8 9
8 21
9 10
9 19
10 11
10 18
11 12
11 16
11 17
12 13
12 15
13 14
19 20
20 42
22 23
22 40
23 24
23 39
24 25
24 28
25 26
25 27
28 29
28 30
30 31
30 38
31 32
31 35
32 33
33 34
34 41
35 36
36 37
